p cnf 36 65 15 0 11 0 29 0 32 0 -13 0 -30 0 -10 0 -1 0 -19 0 -26 15 0 -26 5 0 -24 29 0 -24 34 0 -20 11 0 -20 9 0 -23 6 0 -23 3 0 -17 35 0 -17 18 0 -2 8 0 -2 33 0 26 24 20 23 17 2 0 -26 -24 0 -26 -20 0 -26 -23 0 -26 -17 0 -26 -2 0 -24 -20 0 -24 -23 0 -24 -17 0 -24 -2 0 -20 -23 0 -20 -17 0 -20 -2 0 -23 -17 0 -23 -2 0 -17 -2 0 -27 14 0 -27 4 0 -25 28 0 -25 36 0 -31 12 0 -31 7 0 -22 5 0 -22 1 0 -16 34 0 -16 19 0 -21 9 0 -21 32 0 27 25 31 22 16 21 0 -27 -25 0 -27 -31 0 -27 -22 0 -27 -16 0 -27 -21 0 -25 -31 0 -25 -22 0 -25 -16 0 -25 -21 0 -31 -22 0 -31 -16 0 -31 -21 0 -22 -16 0 -22 -21 0 -16 -21 0 